NAME: tsp20-20
TYPE: TSP
DIMENSION: 20
EDGE_WEIGHT_TYPE: EUC_2D
NODE_COORD_SECTION
0 80 1
1 35 85
2 42 21
3 76 94
4 22 32
5 25 46
6 27 44
7 45 12
8 24 47
9 86 1
10 22 30
11 46 71
12 92 29
13 97 100
14 11 40
15 100 48
16 84 77
17 65 66
18 32 1
19 42 28
EOF